p cnf 136 384
c inputs: 1 2 3 4 5 6 7 8
c variables for gates: 9 ... 128
c outputs: 129 130 131 132 133 134 135 136
c random input: -1 -2 -3 -4 -5 6 -7 8
9 -1 -5 0
-9 1 0
-9 5 0
10 -2 -5 0
-10 2 0
-10 5 0
11 -3 -5 0
-11 3 0
-11 5 0
12 -4 -5 0
-12 4 0
-12 5 0
13 -1 -6 0
-13 1 0
-13 6 0
14 -2 -6 0
-14 2 0
-14 6 0
15 -3 -6 0
-15 3 0
-15 6 0
16 -4 -6 0
-16 4 0
-16 6 0
17 -1 -7 0
-17 1 0
-17 7 0
18 -2 -7 0
-18 2 0
-18 7 0
19 -3 -7 0
-19 3 0
-19 7 0
20 -4 -7 0
-20 4 0
-20 7 0
21 -1 -8 0
-21 1 0
-21 8 0
22 -2 -8 0
-22 2 0
-22 8 0
23 -3 -8 0
-23 3 0
-23 8 0
24 -4 -8 0
-24 4 0
-24 8 0
25 -18 -21 0
-25 18 0
-25 21 0
26 -21 18 0
-26 21 0
-26 -18 0
27 -18 21 0
-27 18 0
-27 -21 0
28 26 27 0
-28 -26 0
-28 -27 0
29 -22 -25 0
-29 22 0
-29 25 0
30 22 -25 0
-30 -22 0
-30 25 0
31 -22 25 0
-31 22 0
-31 -25 0
32 30 31 0
-32 -30 0
-32 -31 0
33 -14 -17 0
-33 14 0
-33 17 0
34 -17 14 0
-34 17 0
-34 -14 0
35 -14 17 0
-35 14 0
-35 -17 0
36 34 35 0
-36 -34 0
-36 -35 0
37 -33 28 0
-37 33 0
-37 -28 0
38 -15 -33 0
-38 15 0
-38 33 0
39 -15 28 0
-39 15 0
-39 -28 0
40 38 39 0
-40 -38 0
-40 -39 0
41 37 -40 0
-41 -37 0
-41 40 0
42 15 28 0
-42 -15 0
-42 -28 0
43 -15 -28 0
-43 15 0
-43 28 0
44 43 42 0
-44 -43 0
-44 -42 0
45 -33 -44 0
-45 33 0
-45 44 0
46 33 44 0
-46 -33 0
-46 -44 0
47 45 46 0
-47 -45 0
-47 -46 0
48 32 41 0
-48 -32 0
-48 -41 0
49 -19 41 0
-49 19 0
-49 -41 0
50 -19 32 0
-50 19 0
-50 -32 0
51 50 49 0
-51 -50 0
-51 -49 0
52 48 -51 0
-52 -48 0
-52 51 0
53 19 32 0
-53 -19 0
-53 -32 0
54 -19 -32 0
-54 19 0
-54 32 0
55 53 54 0
-55 -53 0
-55 -54 0
56 -55 41 0
-56 55 0
-56 -41 0
57 55 -41 0
-57 -55 0
-57 41 0
58 56 57 0
-58 -56 0
-58 -57 0
59 -29 52 0
-59 29 0
-59 -52 0
60 -23 52 0
-60 23 0
-60 -52 0
61 -23 -29 0
-61 23 0
-61 29 0
62 61 60 0
-62 -61 0
-62 -60 0
63 59 -62 0
-63 -59 0
-63 62 0
64 23 -29 0
-64 -23 0
-64 29 0
65 -23 29 0
-65 23 0
-65 -29 0
66 65 64 0
-66 -65 0
-66 -64 0
67 -66 52 0
-67 66 0
-67 -52 0
68 66 -52 0
-68 -66 0
-68 52 0
69 67 68 0
-69 -67 0
-69 -68 0
70 -10 13 0
-70 10 0
-70 -13 0
71 -13 10 0
-71 13 0
-71 -10 0
72 71 70 0
-72 -71 0
-72 -70 0
73 -10 -13 0
-73 10 0
-73 13 0
74 -11 -36 0
-74 11 0
-74 36 0
75 11 36 0
-75 -11 0
-75 -36 0
76 74 75 0
-76 -74 0
-76 -75 0
77 -73 -76 0
-77 73 0
-77 76 0
78 73 76 0
-78 -73 0
-78 -76 0
79 77 78 0
-79 -77 0
-79 -78 0
80 -11 -73 0
-80 11 0
-80 73 0
81 -73 36 0
-81 73 0
-81 -36 0
82 -11 36 0
-82 11 0
-82 -36 0
83 82 81 0
-83 -82 0
-83 -81 0
84 80 -83 0
-84 -80 0
-84 83 0
85 -12 -47 0
-85 12 0
-85 47 0
86 12 47 0
-86 -12 0
-86 -47 0
87 86 85 0
-87 -86 0
-87 -85 0
88 84 -87 0
-88 -84 0
-88 87 0
89 -84 87 0
-89 84 0
-89 -87 0
90 89 88 0
-90 -89 0
-90 -88 0
91 -12 84 0
-91 12 0
-91 -84 0
92 84 47 0
-92 -84 0
-92 -47 0
93 -12 47 0
-93 12 0
-93 -47 0
94 92 93 0
-94 -92 0
-94 -93 0
95 91 -94 0
-95 -91 0
-95 94 0
96 -16 -58 0
-96 16 0
-96 58 0
97 16 58 0
-97 -16 0
-97 -58 0
98 96 97 0
-98 -96 0
-98 -97 0
99 -98 95 0
-99 98 0
-99 -95 0
100 98 -95 0
-100 -98 0
-100 95 0
101 99 100 0
-101 -99 0
-101 -100 0
102 -16 95 0
-102 16 0
-102 -95 0
103 95 58 0
-103 -95 0
-103 -58 0
104 -16 58 0
-104 16 0
-104 -58 0
105 103 104 0
-105 -103 0
-105 -104 0
106 -105 102 0
-106 105 0
-106 -102 0
107 -20 -69 0
-107 20 0
-107 69 0
108 20 69 0
-108 -20 0
-108 -69 0
109 108 107 0
-109 -108 0
-109 -107 0
110 106 -109 0
-110 -106 0
-110 109 0
111 -106 109 0
-111 106 0
-111 -109 0
112 110 111 0
-112 -110 0
-112 -111 0
113 -20 106 0
-113 20 0
-113 -106 0
114 106 69 0
-114 -106 0
-114 -69 0
115 -20 69 0
-115 20 0
-115 -69 0
116 115 114 0
-116 -115 0
-116 -114 0
117 -116 113 0
-117 116 0
-117 -113 0
118 -24 -63 0
-118 24 0
-118 63 0
119 24 63 0
-119 -24 0
-119 -63 0
120 118 119 0
-120 -118 0
-120 -119 0
121 -120 117 0
-121 120 0
-121 -117 0
122 120 -117 0
-122 -120 0
-122 117 0
123 121 122 0
-123 -121 0
-123 -122 0
124 -24 117 0
-124 24 0
-124 -117 0
125 63 117 0
-125 -63 0
-125 -117 0
126 -24 63 0
-126 24 0
-126 -63 0
127 126 125 0
-127 -126 0
-127 -125 0
128 -127 124 0
-128 127 0
-128 -124 0
-129 9 0
129 -9 0
-130 -72 0
130 72 0
-131 -79 0
131 79 0
-132 -90 0
132 90 0
-133 -101 0
133 101 0
-134 -112 0
134 112 0
-135 -123 0
135 123 0
-136 -128 0
136 128 0
-129 0
-130 0
-131 0
-132 0
-133 0
-134 0
-135 0
-136 0
